
******************************************************************************
This program contains Ipopt, a library for large-scale nonlinear optimization.
 Ipopt is released as open source code under the Eclipse Public License (EPL).
         For more information visit http://projects.coin-or.org/Ipopt
******************************************************************************

This is Ipopt version 3.12.6, running with linear solver ma57.

Number of nonzeros in equality constraint Jacobian...:        0
Number of nonzeros in inequality constraint Jacobian.:     6000
Number of nonzeros in Lagrangian Hessian.............:     2002

Total number of variables............................:     2002
                     variables with only lower bounds:        0
                variables with lower and upper bounds:        0
                     variables with only upper bounds:        0
Total number of equality constraints.................:        0
Total number of inequality constraints...............:     2000
        inequality constraints with only lower bounds:     2000
   inequality constraints with lower and upper bounds:        0
        inequality constraints with only upper bounds:        0

iter    objective    inf_pr   inf_du lg(mu)  ||d||  lg(rg) alpha_du alpha_pr  ls
   0  2.0538285e+02 0.00e+00 1.43e+00  -1.0 0.00e+00    -  0.00e+00 0.00e+00   0
   1  3.2523114e+01 3.58e-03 3.87e+00  -1.0 1.88e+00    -  1.00e+00 6.32e-01h  1
   2  1.1026035e+01 1.53e-03 1.46e+01  -1.0 6.80e-01    -  1.00e+00 5.72e-01h  1
   3  7.4609768e+00 6.41e-04 3.61e+01  -1.0 4.02e-01    -  1.00e+00 5.78e-01h  1
   4  7.7298276e+00 2.71e-04 8.68e+01  -1.0 2.90e-01    -  1.00e+00 5.76e-01h  1
   5  9.0742731e+00 1.11e-04 1.98e+02  -1.0 2.44e-01    -  1.00e+00 5.90e-01h  1
   6  1.1338689e+01 4.63e-05 4.85e+02  -1.0 2.25e-01    -  1.00e+00 5.83e-01h  1
   7  1.4941537e+01 1.88e-05 1.13e+03  -1.0 2.17e-01    -  1.00e+00 5.94e-01h  1
   8  2.0425963e+01 7.67e-06 2.70e+03  -1.0 2.12e-01    -  1.00e+00 5.92e-01h  1
   9  2.8869863e+01 2.97e-06 5.96e+03  -1.0 2.04e-01    -  1.00e+00 6.11e-01h  1
iter    objective    inf_pr   inf_du lg(mu)  ||d||  lg(rg) alpha_du alpha_pr  ls
  10  4.2424273e+01 1.12e-06 1.42e+04  -1.0 2.00e-01    -  1.00e+00 6.24e-01h  1
  11  8.1356795e+01 0.00e+00 1.00e-06  -1.0 1.66e-01    -  1.00e+00 1.00e+00h  1
  12  2.0076453e+01 0.00e+00 2.18e-11  -5.7 7.35e-01    -  1.00e+00 1.00e+00f  1
  13  7.4203785e+00 0.00e+00 1.86e-11  -5.7 3.64e-01    -  1.00e+00 1.00e+00f  1
  14  5.3397831e+00 0.00e+00 1.86e-11  -5.7 1.76e-01    -  1.00e+00 1.00e+00f  1
  15  5.0704709e+00 0.00e+00 1.21e+02  -5.7 8.20e-02    -  9.46e-01 1.00e+00f  1
  16  5.0687253e+00 0.00e+00 1.20e+02  -5.7 3.71e-02    -  4.33e-01 2.07e-02f  1
  17  5.0142633e+00 0.00e+00 3.87e+01  -5.7 4.10e-02    -  9.56e-01 8.23e-01f  1
  18  5.0051317e+00 0.00e+00 4.53e+01  -5.7 2.09e-02    -  1.00e+00 5.48e-01f  1
  19  4.9989128e+00 0.00e+00 7.05e+00  -5.7 1.51e-02    -  5.46e-01 1.00e+00f  1
iter    objective    inf_pr   inf_du lg(mu)  ||d||  lg(rg) alpha_du alpha_pr  ls
  20  4.9983526e+00 0.00e+00 5.09e+00  -5.7 3.62e-03    -  5.82e-01 1.00e+00f  1
  21  4.9981592e+00 0.00e+00 1.85e-11  -5.7 3.35e-03    -  1.00e+00 1.00e+00f  1
  22  4.9979437e+00 0.00e+00 1.14e+00  -8.6 2.13e-03    -  7.27e-01 9.98e-01f  1
  23  4.9978894e+00 0.00e+00 3.83e-01  -8.6 8.15e-04    -  7.69e-01 1.00e+00f  1
  24  4.9978486e+00 0.00e+00 4.87e-01  -8.6 3.58e-04    -  2.23e-01 1.00e+00f  1
  25  4.9978357e+00 0.00e+00 2.65e-01  -8.6 1.15e-04    -  4.59e-01 4.78e-01f  1
  26  4.9978023e+00 0.00e+00 2.43e-01  -8.6 1.14e-04    -  2.33e-01 1.00e+00f  1
  27  4.9977992e+00 0.00e+00 9.50e-02  -8.6 1.20e-04    -  6.00e-01 2.14e-01f  1
  28  4.9977863e+00 0.00e+00 8.08e-02  -8.6 7.27e-05    -  2.22e-01 7.53e-01f  1
  29  4.9977804e+00 0.00e+00 4.63e-02  -8.6 6.54e-05    -  3.55e-01 1.00e+00f  1
iter    objective    inf_pr   inf_du lg(mu)  ||d||  lg(rg) alpha_du alpha_pr  ls
  30  4.9977800e+00 0.00e+00 1.40e-02  -8.6 1.75e-05    -  6.97e-01 1.00e+00h  1
  31  4.9977800e+00 0.00e+00 2.51e-14  -8.6 2.01e-05    -  1.00e+00 1.00e+00h  1

Number of Iterations....: 31

                                   (scaled)                 (unscaled)
Objective...............:   4.9977799738102657e+00    4.9977799738102657e+00
Dual infeasibility......:   2.5091040356528538e-14    2.5091040356528538e-14
Constraint violation....:   0.0000000000000000e+00    0.0000000000000000e+00
Complementarity.........:   5.6406592265627816e-09    5.6406592265627816e-09
Overall NLP error.......:   5.6406592265627816e-09    5.6406592265627816e-09


Number of objective function evaluations             = 32
Number of objective gradient evaluations             = 32
Number of equality constraint evaluations            = 0
Number of inequality constraint evaluations          = 32
Number of equality constraint Jacobian evaluations   = 0
Number of inequality constraint Jacobian evaluations = 32
Number of Lagrangian Hessian evaluations             = 31
Total CPU secs in IPOPT (w/o function evaluations)   =      0.110
Total CPU secs in NLP function evaluations           =      0.017

EXIT: Optimal Solution Found.

************************ CUTEst statistics ************************


 Package used            :  IPOPT
 Problem                 :  LISWET3   
 # variables             =            2002
 # constraints           =            2000
 # objective functions   =        0.6500000E+02
 # objective gradients   =        0.3300000E+02
 # objective Hessians    =        0.3200000E+02
 # Hessian-vector prdct  =        0.0000000E+00
 # constraints functions =        0.6600000E+02
 # constraints gradients =        0.3400000E+02
 # constraints Hessians  =        0.3200000E+02
 Exit code               =               0
 Final f                 =   0.4997780E+01
 Set up time             =            0.03 seconds
 Solve time              =            0.30 seconds


******************************************************************

System Time =       0.0970000029 s.
